9223372036854775807 9223372036854775807 9223372036854775807 9223372036854775807 9223372036854775807 9223372036854775807 9223372036854775807 9223372036854775807 9223372036854775807 9223372036854775807 9223372036854775807 9223372036854775807 9223372036854775807 9223372036854775807 9223372036854775807 9223372036854775807 9223372036854775807 9223372036854775807 9223372036854775807 9223372036854775807 9223372036854775807 9223372036854775807 9223372036854775807 9223372036854775807 9223372036854775807 9223372036854775807 9223372036854775807 9223372036854775807 9223372036854775807 9223372036854775807 9223372036854775807 9223372036854775807 9223372036854775807 9223372036854775807 9223372036854775807 9223372036854775807 9223372036854775807 9223372036854775807 9223372036854775807 9223372036854775807 9223372036854775807 9223372036854775807 9223372036854775807 9223372036854775807 9223372036854775807 9223372036854775807 9223372036854775807 9223372036854775807 9223372036854775807 9223372036854775807 9223372036854775807 9223372036854775807 9223372036854775807 9223372036854775807 9223372036854775807 9223372036854775807 9223372036854775807 9223372036854775807 9223372036854775807 9223372036854775807 9223372036854775807 9223372036854775807 9223372036854775807 9223372036854775807 9223372036854775807 9223372036854775807 9223372036854775807 9223372036854775807 9223372036854775807 9223372036854775807 9223372036854775807 9223372036854775807 9223372036854775807 9223372036854775807 9223372036854775807 9223372036854775807 9223372036854775807 9223372036854775807 9223372036854775807 9223372036854775807 9223372036854775807 9223372036854775807 9223372036854775807 9223372036854775807 9223372036854775807 9223372036854775807 9223372036854775807 9223372036854775807 9223372036854775807 9223372036854775807 9223372036854775807 9223372036854775807 9223372036854775807 9223372036854775807 9223372036854775807 9223372036854775807 9223372036854775807 9223372036854775807 9223372036854775807 9223372036854775807 9223372036854775807 9223372036854775807 9223372036854775807 9223372036854775807 9223372036854775807 9223372036854775807 9223372036854775807 9223372036854775807 9223372036854775807 9223372036854775807 9223372036854775807 9223372036854775807 9223372036854775807 9223372036854775807 9223372036854775807 9223372036854775807 9223372036854775807 9223372036854775807 9223372036854775807 9223372036854775807 9223372036854775807 9223372036854775807 9223372036854775807 9223372036854775807 9223372036854775807 9223372036854775807 9223372036854775807 9223372036854775807 9223372036854775807 9223372036854775807 9223372036854775807 9223372036854775807 9223372036854775807 9223372036854775807 9223372036854775807 9223372036854775807 9223372036854775807 9223372036854775807 9223372036854775807 9223372036854775807 9223372036854775807 9223372036854775807 9223372036854775807 9223372036854775807 9223372036854775807 9223372036854775807 9223372036854775807 9223372036854775807 9223372036854775807 9223372036854775807 9223372036854775807 9223372036854775807 9223372036854775807 9223372036854775807 9223372036854775807 9223372036854775807 9223372036854775807 9223372036854775807 9223372036854775807 9223372036854775807 9223372036854775807 9223372036854775807 9223372036854775807 9223372036854775807 9223372036854775807 9223372036854775807 9223372036854775807 9223372036854775807 9223372036854775807 9223372036854775807 9223372036854775807 9223372036854775807 9223372036854775807 9223372036854775807 9223372036854775807 9223372036854775807 9223372036854775807 9223372036854775807 9223372036854775807 9223372036854775807 9223372036854775807 9223372036854775807 9223372036854775807 9223372036854775807 9223372036854775807 9223372036854775807 9223372036854775807 9223372036854775807 9223372036854775807 9223372036854775807 9223372036854775807 9223372036854775807 9223372036854775807 9223372036854775807 9223372036854775807 9223372036854775807 9223372036854775807 9223372036854775807 9223372036854775807 9223372036854775807 9223372036854775807 9223372036854775807 9223372036854775807 9223372036854775807 9223372036854775807 9223372036854775807 9223372036854775807 9223372036854775807 9223372036854775807 9223372036854775807 9223372036854775807 9223372036854775807 9223372036854775807 9223372036854775807 9223372036854775807 9223372036854775807 9223372036854775807 9223372036854775807 9223372036854775807 9223372036854775807 9223372036854775807 9223372036854775807 9223372036854775807 9223372036854775807 9223372036854775807 9223372036854775807 9223372036854775807 9223372036854775807 9223372036854775807 9223372036854775807 9223372036854775807 9223372036854775807 9223372036854775807 9223372036854775807 9223372036854775807 9223372036854775807 9223372036854775807 9223372036854775807 9223372036854775807 9223372036854775807 9223372036854775807 9223372036854775807 9223372036854775807 9223372036854775807 9223372036854775807 9223372036854775807 9223372036854775807 9223372036854775807 9223372036854775807 9223372036854775807 9223372036854775807 9223372036854775807 9223372036854775807 9223372036854775807 9223372036854775807 9223372036854775807 9223372036854775807 9223372036854775807 9223372036854775807 9223372036854775807 9223372036854775807 9223372036854775807 9223372036854775807 9223372036854775807 9223372036854775807 9223372036854775807 9223372036854775807 9223372036854775807 9223372036854775807 9223372036854775807 9223372036854775807 9223372036854775807 9223372036854775807 9223372036854775807 9223372036854775807 9223372036854775807 9223372036854775807 9223372036854775807 9223372036854775807 9223372036854775807 9223372036854775807 9223372036854775807 9223372036854775807 9223372036854775807 9223372036854775807 9223372036854775807 9223372036854775807 9223372036854775807 9223372036854775807 9223372036854775807 9223372036854775807 9223372036854775807 9223372036854775807 9223372036854775807 9223372036854775807 9223372036854775807 9223372036854775807 9223372036854775807 9223372036854775807 9223372036854775807 9223372036854775807 9223372036854775807 9223372036854775807 9223372036854775807 9223372036854775807 9223372036854775807 9223372036854775807 9223372036854775807 9223372036854775807 9223372036854775807 9223372036854775807 9223372036854775807 9223372036854775807 9223372036854775807 9223372036854775807 9223372036854775807 9223372036854775807 9223372036854775807 9223372036854775807 9223372036854775807 9223372036854775807 9223372036854775807 9223372036854775807 9223372036854775807 9223372036854775807 9223372036854775807 9223372036854775807 9223372036854775807 9223372036854775807 9223372036854775807 9223372036854775807 9223372036854775807 9223372036854775807 9223372036854775807 9223372036854775807 9223372036854775807 9223372036854775807 9223372036854775807 9223372036854775807 9223372036854775807 9223372036854775807 9223372036854775807 9223372036854775807 9223372036854775807 9223372036854775807 9223372036854775807 9223372036854775807 9223372036854775807 9223372036854775807 9223372036854775807 9223372036854775807 9223372036854775807 9223372036854775807 9223372036854775807 9223372036854775807 9223372036854775807 9223372036854775807 9223372036854775807 9223372036854775807 9223372036854775807 9223372036854775807 9223372036854775807 9223372036854775807 9223372036854775807 9223372036854775807 9223372036854775807 9223372036854775807 9223372036854775807 9223372036854775807 9223372036854775807 9223372036854775807 9223372036854775807 9223372036854775807 9223372036854775807 9223372036854775807 9223372036854775807 9223372036854775807 9223372036854775807 9223372036854775807 9223372036854775807 9223372036854775807 9223372036854775807 9223372036854775807 9223372036854775807 9223372036854775807 9223372036854775807 9223372036854775807 9223372036854775807 9223372036854775807 9223372036854775807 9223372036854775807 9223372036854775807 9223372036854775807 9223372036854775807 9223372036854775807 9223372036854775807 9223372036854775807 9223372036854775807 9223372036854775807 9223372036854775807 9223372036854775807 9223372036854775807 9223372036854775807 9223372036854775807 9223372036854775807 9223372036854775807 9223372036854775807 9223372036854775807 9223372036854775807 9223372036854775807 9223372036854775807 9223372036854775807 9223372036854775807 9223372036854775807 6320 6317 6311 6311 9223372036854775807 9223372036854775807 9223372036854775807 9223372036854775807 9223372036854775807 9223372036854775807 9223372036854775807 9223372036854775807 9223372036854775807 6252 9223372036854775807 6245 9223372036854775807 6228 6228 9223372036854775807 9223372036854775807 9223372036854775807 9223372036854775807 6185 6185 6185 6176 9223372036854775807 6154 6148 6148 6139 6136 6124 6121 6120 6115 6112 6107 6055 6055 6045 6040 6038 6034 6032 6032 6019 6019 6012 6012 5997 5963 5963 5959 5952 5952 5947 5936 5932 5930 5926 5925 5919 5915 5909 5908 5900 5898 5896 5893 5889 5880 5880 5876 5872 5870 5865 5856 5856 5852 5848 5847 5845 5845 5836 5836 5833 5832 5826 5824 5821 5815 5812 5806 5803 5802 5800 5788 5786 5784 5782 5781 5778 5775 5775 5772 5751 5749 5745 5735 5732 5728 5721 5716 5710 5706 5706 5704 5704 5704 5702 5700 5700 5699 5695 5694 5692 5684 5682 5679 5667 5667 5661 5658 5654 5650 5646 5643 5642 5636 5629 5627 5622 5621 5616 5616 5615 5615 5614 5604 5604 5604 5603 5600 5600 5599 5598 5597 5597 5597 5596 5590 5589 5589 5587 5586 5585 5582 5579 5575 5574 5573 5566 5566 5566 5565 5562 5562 5559 5559 5559 5551 5551 5545 5542 5542 5541 5541 5539 5539 5539 5538 5538 5537 5536 5536 5535 5533 5533 5529 5529 5529 5529 5527 5527 5527 5527 5526 5526 5499 5499 5498 5497 5497 5496 5496 5495 5495 5494 5493 5493 5493 5493 5493 5493 5483 5483 5483 5481 5480 5480 5466 5462 5456 5452 5452 5445 5437 5437 5437 5437 5427 5427 5426 5404 5404 5393 5384 5384 5384 5383 5383 5381 5375 5375 5370 5370 5364 5364 5364 5358 5358 5357 5357 5356 5354 5354 5346 5346 5345 5345 5345 5344 5328 5327 5323 5310 5310 5300 5300 5297 5297 5296 5296 5296 5292 5289 5285 5282 5280 5279 5278 5277 5276 5275 5274 5274 5274 5274 5274 5273 5273 5273 5273 5273 5273 5273 5273 5273 5273 5273 5273 5273 5273 5273 5273 5273 5273 5273 5273 5273 5273 5273 5273 5273 5273 5273 5273 5273 5273 5273 5273 5273 5273 5273 5273 5273 5273 5273 5273 5273 5273 5273 5273 5273 5273 5273 5273 5272 5272 5272 5272 5272 5272 5272 5272 5272 5272 5272 5272 5272 5272 5272 5272 5272 5272 5272 5272 5272 5272 5272 5272 5272 5272 5272 5272 5272 5272 5272 5272 5272 5272 5272 5272 5272 5272 5272 5272 5272 5272 5272 5272 5272 5272 5272 5272 5272 5272 5272 5272 5272 5272 5272 5272 5272 5272 5272 5272 5272 5272 5272 5272 5272 5272 5272 5272 5272 5272 5272 5272 5272 5272 5272 5272 5272 5272 5272 5272 5272 5272 5272 5272 5272 5272 5272 5272 5272 5272 5272 5272 5272 5272 5272 5272 5272 5272 5272 5272 5272 5272 5272 5272 5272 5272 5272 5272 5272 5272 5272 5272 5272 5272 5272 5272 5272 5272 5272 5272 5272 5272 5272 5272 5272 5272 5272 5272 5272 5272 5272 5272 5272 5272 5272 5272 5272 5272 5272 5272 5272 5272 5272 5272 5272 5272 5272 5272 5272 5272 5272 5272 5272 5272 5272 5272 5272 5272 5272 5272 5272 5272 5272 5272 5272 5272 5272 5272 5272 5272 5272 5272 5272 5272 5271 5271 5271 5271 5271 5271 5271 5271 5271 5271 5271 5271 5271 5271 5271 5271 5271 5271 5271 5271 5271 5271 5271 5271 5271 5271 5271 5271 5271 5271 5271 5271 5271 5271 5271 5271 5271 5271 5271 5271 5271 5271 5271 5271 5271 5271 5271 5271 5271 5271 5271 5271 5271 5271 5271 5271 5271 5271 5271 5271 5271 5271 5271 5271 5271 5271 5271 5271 5271 5271 5271 5271 5271 5271 5271 5271 5271 5271 5271 5271 5271 5271 5271 5271 5271 5271 5271 5271 5271 5271 5271 5271 5271 5271 5271 5271 5271 5271 5271 5271 5271 5271 5271 5271 5271 5271 5271 5271 5271 5271 5271 5271 5271 5271 5271 5271 5271 5271 5271 5271 5271 5271 5271 5271 5271 5271 5271 5271 5271 5271 5271 5271 5271 5271 5271 5271 5271 5271 5271 5271 5271 5271 5271 5271 5271 5271 5271 5271 5271 5271 5271 5271 5271 5271 5271 5271 5271 5271 5271 5271 5271 5271 5271 5271 5271 5271 5271 5271 5271 5271 5271 5271 5271 5271 5271 5271 5271 5271 5271 5271 5271 5271 5271 5271 5271 5271 5271 5271 5271 5271 5271 5271 5271 5271 5271 5271 5271 5271 5271 5271 5271 5271 5271 5271 5271 5271 5271 5271 5271 5271 5271 5271 5271 5271 5271 5271 5271 5271 5271 5271 5271 5271 5271 5271 5271 5271 5271 5271 5271 5271 5271 5271 5271 5271 5271 5271 5271 5271 5271 5271 5271 5271 5271 5271 5271 5271 5271 5271 5271 5271 5271 5271 5271 5271 5271 5271 5271 5271 5271 5271 5271 5271 5271 5271 5271 5271 5271 5271 5271 5271 5271 5271 5271 5271 5271 5271 5271 5271 5271 5271 5271 5271 5271 5271 5271 5271 5271 5271 5271 5271 5271 5271 5271 5271 5271 5271 5271 5271 5271 5271 5271 5271 5271 5271 5271 5271 5271 5271 5271 5271 5271 5271 5271 5271 5271 5271 5271 5271 5271 5271 5271 5271 5271 5271 5271 5271 5271 5271 5271 5271 5271 5271 5271 5271 5271 5271 5271 5271 5271 5271 5271 5271 5271 5271 5271 5271 5271 5271 5271 5271 5271 5271 5271 5271 5271 5271 5271 5271 5271 5271 5271 5271 5271 5271 5271 5271 5271 5271 5271 5271 5271 5271 5271 5271 5271 5271 5271 5271 5271 5271 5271 5271 5271 5271 5271 5271 5271 5271 5271 5271 5271 5271 5271 5271 5271 5271 5271 5271 5271 5271 5271 5271 5271 5271 5271 5271 5271 5271 5271 5271 5271 5271 5271 5271 5271 5271 5271 5271 5271 5271 5271 5271 5271 5271 5271 5271 5271 5271 5271 5271 5271 5271 5271 5271 5271 5271 5271 5271 5271 5271 5271 5271 5271 5271 5271 5271 5271 5271 5271 5271 5271 5271 5271 5271 5271 5271 5271 5271 5271 5271 5271 5271 5271 5271 5271 5271 5271 5271 5271 5271 5271 5271 5271 5271 5271 5271 5271 5271 5271 5271 5271 5271 5271 5271 5271 5271 5271 5271 5271 5271 5271 5271 5271 5271 5271 5271 5271 5271 5271 5271 5271 5271 5271 5271 5271 5271 5271 5271 5271 5271 5271 5271 5271 5271 5271 5271 5271 5271 5271 5271 5271 5271 5271 5271 5271 5271 5271 5271 5271 5271 5271 5271 5271 5271 5271 5271 5271 5271 5271 5271 5271 5271 5271 5271 5271 5271 5271 5271 5271 5271 5271 5271 5271 5271 5271 5271 5271 5271 5271 5271 5271 5271 5271 5271 5271 5271 5271 5271 5271 5271 5271 5271 5271 5271 5271 5271 5271 5271 5271 5271 5271 5271 5271 5271 5271 5271 5271 5271 5271 5271 5271 5271 5271 5271 5271 5271 5271 5271 5271 5271 5271 5271 5271 5271 5271 5271 5271 5271 5271 5271 5271 5271 5271 5271 5271 5271 5271 5271 5271 5271 5271 5271 5271 5271 5271 5271 5271 5271 5271 5271 5271 5271 5271 5271 5271 5271 5271 5271 5271 5271 5271 5271 5271 5271 5271 5271 5271 5271 5271 5271 5271 5271 5271 5271 5271 5271 5271 5271 5271 5271 5271 5271 5271 5271 5271 5271 5271 5271 5271 5271 5271 5271 5271 5271 5271 5271 5271 5271 5271 5271 5271 5271 5271 5271 5271 5271 5271 5271 5271 5271 5271 5271 5271 5271 5271 5271 5271 5271 5271 5271 5271 5271 5271 5271 5271 5271 5271 5271 5271 5271 5271 5271 5271 5271 5271 5271 5271 5271 5271 5271 5271 5271 5271 5271 5271 5271 5271 5271 5271 5271 5271 5271 5271 5271 5271 5271 5271 5271 5271 5271 5271 5271 5271 5271 5271 5271 5271 5271 5271 5271 5271 5271 5271 5271 5271 5271 5271 5271 5271 5271 5271 5271 5271 5271 5271 5271 5271 5271 5271 5271 5271 5271 5271 5271 5271 5271 5271 5271 5271 5271 5271 5271 5271 5271 5271 5271 5271 5271 5271 5271 5271 5271 5271 5271 5271 5271 5271 5271 5271 5271 5271 5271 5271 5271 5271 5271 5271 5271 5271 5271 5271 5271 5271 5271 5271 5271 5271 5271 5271 5271 5271 5271 5271 5271 5271 5271 5271 5271 5271 5271 5271 5271 5271 5271 5271 5271 5271 5271 5271 5271 5271 5271 5271 5271 5271 5271 5271 5271 5271 5271 5271 5271 5271 5271 5271 5271 5271 5271 5271 5271 5271 5271 5271 5271 5271 5271 5271 5271 5271 5271 5271 5271 5271 5271 5271 5271 5271 5271 5271 5271 5271 5271 5271 5271 5271 5271 5271 5271 5271 5271 5271 5271 5271 5271 5271 5271 5271 5271 5271 5271 5271 5271 5271 5271 5271 5271 5271 5271 5271 5271 5271 5271 5271 5271 5271 5271 5271 5271 5271 5271 5271 5271 5271 5271 5271 5271 5271 5271 5271 5271 5271 5271 5271 5271 5271 5271 5271 5271 5271 5271 5271 5271 5271 5271 5271 5271 5271 5271 5271 5271 5271 5271 5271 5271 5271 5271 5271 5271 5271 5271 5271 5271 5271 5271 5271 5271 5271 5271 5271 5271 5271 5271 5271 5271 5271 5271 5271 5271 5271 5271 5271 5271 5271 5271 5271 5271 5271 5271 5271 5271 5271 5271 5271 5271 5271 5271 5271 5271 5271 5271 5271 5271 5271 5271 5271 5271 5271 5271 5271 5271 5271 5271 5271 5271 5271 5271 5271 5271 5271 5271 5271 5271 5271 5271 5271 5271 5271 5271 5271 5271 5271 5271 5271 5271 5271 5271 5271 5271 5271 5271 5271 5271 5271 5271 5271 5271 5271 5271 5271 5271 5271 5271 5271 5271 5271 5271 5271 5271 5271 5271 5271 5271 5271 
0 0 0 0 0 0 0 0 0 0 0 0 0 0 0 0 0 0 0 0 0 0 0 0 0 0 0 0 0 0 0 0 0 0 0 0 0 0 0 0 0 0 0 0 0 0 0 0 0 0 0 0 0 0 0 0 0 0 0 0 0 0 0 0 0 0 0 0 0 0 0 0 0 0 0 0 0 0 0 0 0 0 0 0 0 0 0 0 0 0 0 0 0 0 0 0 0 0 0 0 0 0 0 0 0 0 0 0 0 0 0 0 0 0 0 0 0 0 0 0 0 0 0 0 0 0 0 0 0 0 0 0 0 0 0 0 0 0 0 0 0 0 0 0 0 0 0 0 0 0 0 0 0 0 0 0 0 0 0 0 0 0 0 0 0 0 0 0 0 0 0 0 0 0 0 0 0 0 0 0 0 0 0 0 0 0 0 0 0 0 0 0 0 0 0 0 0 0 0 0 0 0 0 0 0 0 0 0 0 0 0 0 0 0 0 0 0 0 0 0 0 0 0 0 0 0 0 0 0 0 0 0 0 0 0 0 0 0 0 0 0 0 0 0 0 0 0 0 0 0 0 0 0 0 0 0 0 0 0 0 0 0 0 0 0 0 0 0 0 0 0 0 0 0 0 0 0 0 0 0 0 0 0 0 0 0 0 0 0 0 0 0 0 0 0 0 0 0 0 0 0 0 0 0 0 0 0 0 0 0 0 0 0 0 0 0 0 0 0 0 0 0 0 0 0 0 0 0 0 0 0 0 0 0 0 0 0 0 0 0 0 0 0 0 0 0 0 0 0 0 0 0 0 0 0 0 0 0 0 0 0 0 0 0 0 0 0 0 0 0 0 0 0 0 0 0 0 0 0 0 0 0 0 0 0 0 0 0 0 0 0 0 0 0 0 0 0 0 0 0 0 0 0 0 0 0 0 0 0 0 0 0 0 0 6320 6319 6313 6311 0 0 0 0 0 0 0 0 0 6255 0 6245 0 6228 6228 0 0 0 0 6185 6185 6185 6176 0 6154 6151 6148 6139 6138 6137 6134 6123 6123 6120 6116 6113 6083 6061 6060 6053 6043 6039 6037 6036 6033 6031 6026 6018 6016 6010 5987 5962 5961 5956 5953 5949 5944 5939 5933 5929 5924 5919 5917 5911 5906 5903 5899 5897 5894 5891 5887 5883 5879 5875 5871 5869 5867 5860 5855 5850 5847 5846 5844 5843 5838 5833 5832 5830 5824 5820 5815 5813 5811 5807 5802 5799 5799 5793 5785 5783 5781 5778 5776 5775 5773 5770 5753 5744 5742 5736 5730 5727 5720 5712 5708 5705 5705 5703 5703 5703 5702 5700 5698 5697 5693 5691 5689 5682 5681 5677 5666 5663 5660 5656 5653 5650 5644 5641 5640 5632 5627 5621 5620 5620 5618 5615 5614 5614 5613 5611 5603 5603 5602 5602 5599 5598 5598 5596 5596 5596 5595 5594 5588 5588 5586 5584 5582 5578 5575 5573 5572 5572 5568 5565 5565 5564 5563 5561 5558 5558 5557 5550 5547 5541 5541 5541 5541 5540 5540 5538 5538 5538 5537 5536 5535 5535 5534 5533 5532 5529 5528 5528 5528 5527 5526 5526 5526 5525 5525 5519 5498 5497 5497 5496 5496 5494 5494 5494 5494 5493 5493 5493 5492 5492 5492 5491 5482 5482 5480 5480 5479 5478 5464 5458 5451 5449 5448 5443 5437 5436 5436 5433 5423 5403 5403 5403 5403 5400 5384 5383 5382 5382 5382 5374 5373 5369 5369 5363 5363 5357 5357 5357 5357 5356 5356 5355 5353 5345 5345 5344 5344 5343 5343 5331 5322 5310 5309 5309 5305 5299 5296 5296 5296 5295 5293 5291 5284 5281 5279 5279 5278 5277 5275 5274 5274 5274 5274 5273 5273 5273 5273 5273 5273 5273 5273 5273 5273 5273 5273 5273 5273 5273 5273 5273 5273 5273 5273 5273 5273 5273 5273 5273 5273 5273 5273 5273 5273 5273 5273 5273 5273 5273 5273 5273 5273 5273 5273 5273 5273 5273 5273 5273 5273 5273 5273 5272 5272 5272 5272 5272 5272 5272 5272 5272 5272 5272 5272 5272 5272 5272 5272 5272 5272 5272 5272 5272 5272 5272 5272 5272 5272 5272 5272 5272 5272 5272 5272 5272 5272 5272 5272 5272 5272 5272 5272 5272 5272 5272 5272 5272 5272 5272 5272 5272 5272 5272 5272 5272 5272 5272 5272 5272 5272 5272 5272 5272 5272 5272 5272 5272 5272 5272 5272 5272 5272 5272 5272 5272 5272 5272 5272 5272 5272 5272 5272 5272 5272 5272 5272 5272 5272 5272 5272 5272 5272 5272 5272 5272 5272 5272 5272 5272 5272 5272 5272 5272 5272 5272 5272 5272 5272 5272 5272 5272 5272 5272 5272 5272 5272 5272 5272 5272 5272 5272 5272 5272 5272 5272 5272 5272 5272 5272 5272 5272 5272 5272 5272 5272 5272 5272 5272 5272 5272 5272 5272 5272 5272 5272 5272 5272 5272 5272 5272 5272 5272 5272 5272 5272 5272 5272 5272 5272 5272 5272 5272 5272 5272 5272 5272 5272 5272 5272 5272 5272 5272 5272 5272 5272 5272 5271 5271 5271 5271 5271 5271 5271 5271 5271 5271 5271 5271 5271 5271 5271 5271 5271 5271 5271 5271 5271 5271 5271 5271 5271 5271 5271 5271 5271 5271 5271 5271 5271 5271 5271 5271 5271 5271 5271 5271 5271 5271 5271 5271 5271 5271 5271 5271 5271 5271 5271 5271 5271 5271 5271 5271 5271 5271 5271 5271 5271 5271 5271 5271 5271 5271 5271 5271 5271 5271 5271 5271 5271 5271 5271 5271 5271 5271 5271 5271 5271 5271 5271 5271 5271 5271 5271 5271 5271 5271 5271 5271 5271 5271 5271 5271 5271 5271 5271 5271 5271 5271 5271 5271 5271 5271 5271 5271 5271 5271 5271 5271 5271 5271 5271 5271 5271 5271 5271 5271 5271 5271 5271 5271 5271 5271 5271 5271 5271 5271 5271 5271 5271 5271 5271 5271 5271 5271 5271 5271 5271 5271 5271 5271 5271 5271 5271 5271 5271 5271 5271 5271 5271 5271 5271 5271 5271 5271 5271 5271 5271 5271 5271 5271 5271 5271 5271 5271 5271 5271 5271 5271 5271 5271 5271 5271 5271 5271 5271 5271 5271 5271 5271 5271 5271 5271 5271 5271 5271 5271 5271 5271 5271 5271 5271 5271 5271 5271 5271 5271 5271 5271 5271 5271 5271 5271 5271 5271 5271 5271 5271 5271 5271 5271 5271 5271 5271 5271 5271 5271 5271 5271 5271 5271 5271 5271 5271 5271 5271 5271 5271 5271 5271 5271 5271 5271 5271 5271 5271 5271 5271 5271 5271 5271 5271 5271 5271 5271 5271 5271 5271 5271 5271 5271 5271 5271 5271 5271 5271 5271 5271 5271 5271 5271 5271 5271 5271 5271 5271 5271 5271 5271 5271 5271 5271 5271 5271 5271 5271 5271 5271 5271 5271 5271 5271 5271 5271 5271 5271 5271 5271 5271 5271 5271 5271 5271 5271 5271 5271 5271 5271 5271 5271 5271 5271 5271 5271 5271 5271 5271 5271 5271 5271 5271 5271 5271 5271 5271 5271 5271 5271 5271 5271 5271 5271 5271 5271 5271 5271 5271 5271 5271 5271 5271 5271 5271 5271 5271 5271 5271 5271 5271 5271 5271 5271 5271 5271 5271 5271 5271 5271 5271 5271 5271 5271 5271 5271 5271 5271 5271 5271 5271 5271 5271 5271 5271 5271 5271 5271 5271 5271 5271 5271 5271 5271 5271 5271 5271 5271 5271 5271 5271 5271 5271 5271 5271 5271 5271 5271 5271 5271 5271 5271 5271 5271 5271 5271 5271 5271 5271 5271 5271 5271 5271 5271 5271 5271 5271 5271 5271 5271 5271 5271 5271 5271 5271 5271 5271 5271 5271 5271 5271 5271 5271 5271 5271 5271 5271 5271 5271 5271 5271 5271 5271 5271 5271 5271 5271 5271 5271 5271 5271 5271 5271 5271 5271 5271 5271 5271 5271 5271 5271 5271 5271 5271 5271 5271 5271 5271 5271 5271 5271 5271 5271 5271 5271 5271 5271 5271 5271 5271 5271 5271 5271 5271 5271 5271 5271 5271 5271 5271 5271 5271 5271 5271 5271 5271 5271 5271 5271 5271 5271 5271 5271 5271 5271 5271 5271 5271 5271 5271 5271 5271 5271 5271 5271 5271 5271 5271 5271 5271 5271 5271 5271 5271 5271 5271 5271 5271 5271 5271 5271 5271 5271 5271 5271 5271 5271 5271 5271 5271 5271 5271 5271 5271 5271 5271 5271 5271 5271 5271 5271 5271 5271 5271 5271 5271 5271 5271 5271 5271 5271 5271 5271 5271 5271 5271 5271 5271 5271 5271 5271 5271 5271 5271 5271 5271 5271 5271 5271 5271 5271 5271 5271 5271 5271 5271 5271 5271 5271 5271 5271 5271 5271 5271 5271 5271 5271 5271 5271 5271 5271 5271 5271 5271 5271 5271 5271 5271 5271 5271 5271 5271 5271 5271 5271 5271 5271 5271 5271 5271 5271 5271 5271 5271 5271 5271 5271 5271 5271 5271 5271 5271 5271 5271 5271 5271 5271 5271 5271 5271 5271 5271 5271 5271 5271 5271 5271 5271 5271 5271 5271 5271 5271 5271 5271 5271 5271 5271 5271 5271 5271 5271 5271 5271 5271 5271 5271 5271 5271 5271 5271 5271 5271 5271 5271 5271 5271 5271 5271 5271 5271 5271 5271 5271 5271 5271 5271 5271 5271 5271 5271 5271 5271 5271 5271 5271 5271 5271 5271 5271 5271 5271 5271 5271 5271 5271 5271 5271 5271 5271 5271 5271 5271 5271 5271 5271 5271 5271 5271 5271 5271 5271 5271 5271 5271 5271 5271 5271 5271 5271 5271 5271 5271 5271 5271 5271 5271 5271 5271 5271 5271 5271 5271 5271 5271 5271 5271 5271 5271 5271 5271 5271 5271 5271 5271 5271 5271 5271 5271 5271 5271 5271 5271 5271 5271 5271 5271 5271 5271 5271 5271 5271 5271 5271 5271 5271 5271 5271 5271 5271 5271 5271 5271 5271 5271 5271 5271 5271 5271 5271 5271 5271 5271 5271 5271 5271 5271 5271 5271 5271 5271 5271 5271 5271 5271 5271 5271 5271 5271 5271 5271 5271 5271 5271 5271 5271 5271 5271 5271 5271 5271 5271 5271 5271 5271 5271 5271 5271 5271 5271 5271 5271 5271 5271 5271 5271 5271 5271 5271 5271 5271 5271 5271 5271 5271 5271 5271 5271 5271 5271 5271 5271 5271 5271 5271 5271 5271 5271 5271 5271 5271 5271 5271 5271 5271 5271 5271 5271 5271 5271 5271 5271 5271 5271 5271 5271 5271 5271 5271 5271 5271 5271 5271 5271 5271 5271 5271 5271 5271 5271 5271 5271 5271 5271 5271 5271 5271 5271 5271 5271 5271 5271 5271 5271 5271 5271 5271 5271 5271 5271 5271 5271 5271 5271 5271 5271 5271 5271 5271 5271 5271 5271 5271 5271 5271 5271 5271 5271 5271 5271 5271 5271 5271 5271 5271 5271 5271 5271 5271 5271 5271 5271 5271 5271 5271 5271 5271 5271 5271 5271 5271 5271 5271 5271 5271 5271 5271 5271 5271 5271 5271 5271 5271 5271 5271 5271 5271 5271 5271 5271 5271 5271 5271 5271 5271 5271 5271 5271 5271 5271 5271 5271 5271 5271 5271 5271 5271 5271 5271 5271 5271 5271 5271 5271 5271 5271 5271 5271 5271 5271 5271 5271 5271 5271 5271 5271 5271 5271 5271 5271 5271 5271 5271 5271 5271 5271 5271 5271 5271 5271 5271 5271 5271 5271 5271 5271 5271 5271 5271 5271 5271 5271 5271 5271 5271 5271 5271 5271 5271 5271 5271 5271 5271 5271 5271 5271 5271 5271 5271 5271 5271 5271 5271 5271 5271 5271 5271 5271 5271 5271 5271 5271 5271 5271 5271 5271 5271 5271 5271 5271 5271 5271 